9 194
15 142
10 30
70 5
64 93
19 42
84 4
25 32
29 20
29 88
31 126
45 54
97 32
32 18
9 199
15 54
22 144
32 115
78 65
98 12
4 13
5 85
14 190
27 65
5 175
49 10
87 61
28 72
11 25
8 71
18 173
8 57
11 115
37 17
23 97
4 132
53 81
12 76
16 78
12 198
37 49
32 160
8 135
29 121
46 44
76 19
7 111
4 184
59 46
1 162
50 6
56 88
17 108
11 56
17 98
4 111
16 37
43 92
13 165
19 130
15 132
52 33
1 133
61 7
91 47
33 112
13 169
10 163
41 82
28 38
42 69
1 137
21 56
75 1
87 11
38 51
44 15
38 134
25 185
32 87
12 108
70 33
42 55
6 155
69 55
32 3
14 198
7 115
90 47
69 27
27 100
16 159
12 49
4 26
72 6
16 36
94 28
42 31
1 154
12 43
